\ This file has been generated by DOcplex
\ ENCODING=ISO-8859-1
\Problem name: 2generals problem

Maximize
 obj: - 1.934681489923 aj_u0_x0 - 5 aj_u1_x0 - 5 aj_u2_x0
      + 2.500000000000 aj_u3_x0 - 4.225000000000 aj_u0_x1 - 5 aj_u1_x1
      - 5 aj_u2_x1 - 10 aj_u3_x1
Subject To
 c1: - 0.008495927591 aj_u0_x0 - 20 aj_u1_x0 - 12 aj_u2_x0 - 13 aj_u3_x0
     + 0.008495927591 a0_u0 + 12 a0_u1 >= 0
 c2: - 0.008495927591 aj_u0_x0 - 20 aj_u1_x0 - 12 aj_u2_x0 - 13 aj_u3_x0
     + 20 a0_u0 + 13 a0_u1 >= 0
 c3: - 14.765000000000 aj_u0_x1 + 3 aj_u1_x1 - 13 aj_u2_x1 - 16 aj_u3_x1
     + 14.765000000000 a0_u0 + 13 a0_u1 >= 0
 c4: - 14.765000000000 aj_u0_x1 + 3 aj_u1_x1 - 13 aj_u2_x1 - 16 aj_u3_x1
     - 3 a0_u0 + 16 a0_u1 >= 0
 c5: a0_u0 + a0_u1 = 1
 c6: a1_u0_x0 + a1_u1_x0 = 1
 c7: aj_u0_x0 + aj_u1_x0 + aj_u2_x0 + aj_u3_x0 = 1
 c8: a1_u0_x1 + a1_u1_x1 = 1
 c9: aj_u0_x1 + aj_u1_x1 + aj_u2_x1 + aj_u3_x1 = 1
 c10: aj_u0_x0 + aj_u1_x0 - a0_u0 = 0
 c11: aj_u2_x0 + aj_u3_x0 - a0_u1 = 0
 c12: aj_u0_x1 + aj_u1_x1 - a0_u0 = 0
 c13: aj_u2_x1 + aj_u3_x1 - a0_u1 = 0
 c14: aj_u0_x0 + aj_u2_x0 - a1_u0_x0 = 0
 c15: aj_u1_x0 + aj_u3_x0 - a1_u1_x0 = 0
 c16: aj_u0_x1 + aj_u2_x1 - a1_u0_x1 = 0
 c17: aj_u1_x1 + aj_u3_x1 - a1_u1_x1 = 0

Bounds
       a0_u0 <= 1
       a0_u1 <= 1
 0 <= a1_u0_x0 <= 1
 0 <= a1_u1_x0 <= 1
       aj_u0_x0 <= 1
       aj_u1_x0 <= 1
       aj_u2_x0 <= 1
       aj_u3_x0 <= 1
 0 <= a1_u0_x1 <= 1
 0 <= a1_u1_x1 <= 1
       aj_u0_x1 <= 1
       aj_u1_x1 <= 1
       aj_u2_x1 <= 1
       aj_u3_x1 <= 1

Binaries
 a1_u0_x0 a1_u1_x0 a1_u0_x1 a1_u1_x1
End
